c User generated cnf file
p cnf 8 27
6 -5 1 0 
3 -7 6 0 
8 2 -7 0 
7 -6 2 0 
2 -2 2 0 
8 2 -1 0 
2 -4 8 0 
3 -5 4 0 
3 -3 4 0 
2 -3 4 0 
3 7 -7 0 
1 -7 1 0 
6 -8 2 0 
3 3 -4 0 
7 7 -3 0 
8 8 -5 0 
4 -5 3 0 
8 7 -3 0 
8 -6 4 0 
1 4 -5 0 
1 -6 5 0 
8 -8 2 0 
5 2 -7 0 
1 -2 5 0 
6 -6 8 0 
4 1 -7 0 
6 2 -6 0 
